(set-logic ALL)
(set-option :fmf-bound true)
(set-option :produce-models true)
(declare-sort Object 0)

(declare-fun var59 (Bool) Bool)
(declare-fun var88 (Bool) Bool)
(declare-fun var100 (Bool) Bool)
(declare-fun var64 (Bool) Bool)
(declare-fun var184 (Bool) Bool)
(declare-fun var52 (Bool) Bool)
(declare-fun var160 (Bool) Bool)
(declare-fun var104 (Bool) Bool)
(declare-fun var186 (Bool) Bool)
(declare-fun var7 (Bool) Bool)
(declare-fun var4 (Bool) Bool)
(declare-fun var23 (Bool) Bool)
(declare-fun var129 (Bool) Bool)
(declare-fun var161 (Bool) Bool)
(declare-fun var36 (Bool) Bool)
(declare-fun var112 (Bool) Bool)
(declare-fun var118 (Bool) Bool)
(declare-fun var158 (Bool) Bool)
(declare-fun var123 (Bool) Bool)
(declare-fun var1 (Bool) Bool)
(declare-fun var111 (Bool) Bool)
(declare-fun var40 (Bool) Bool)
(declare-fun var29 (Bool) Bool)
(declare-fun var57 (Bool) Bool)
(declare-fun var105 (Bool) Bool)
(declare-fun var27 (Bool) Bool)
(declare-fun var175 (Bool) Bool)
(declare-fun var167 (Bool) Bool)
(declare-fun var117 (Bool) Bool)
(declare-fun var150 (Bool) Bool)
(declare-fun var20 (Bool) Bool)
(declare-fun var35 (Bool) Bool)
(declare-fun var159 (Bool) Bool)
(declare-fun var55 (Bool) Bool)
(declare-fun var152 (Bool) Bool)
(declare-fun var18 (Bool) Bool)
(declare-fun var50 (Bool) Bool)
(declare-fun var132 (Bool) Bool)
(declare-fun var98 (Bool) Bool)
(declare-fun var14 (Bool) Bool)
(declare-fun var26 (Bool) Bool)
(declare-fun var78 (Bool) Bool)
(declare-fun var145 (Bool) Bool)
(declare-fun var30 (Bool) Bool)
(declare-fun var182 (Bool) Bool)
(declare-fun var13 (Bool) Bool)
(declare-fun var177 (Bool) Bool)
(declare-fun var125 (Bool) Bool)
(declare-fun var178 (Bool) Bool)
(declare-fun var136 (Bool) Bool)
(declare-fun var92 (Bool) Bool)
(declare-fun var128 (Bool) Bool)
(declare-fun var124 (Bool) Bool)
(declare-fun var102 (Bool) Bool)
(declare-fun var61 (Bool) Bool)
(declare-fun var142 (Bool) Bool)
(declare-fun var2 (Bool) Bool)
(declare-fun var42 (Bool) Bool)
(declare-fun var163 (Bool) Bool)
(declare-fun var135 (Bool) Bool)
(declare-fun var144 (Bool) Bool)
(declare-fun var32 (Bool) Bool)
(declare-fun var74 (Bool) Bool)
(declare-fun var56 (Bool) Bool)
(declare-fun var72 (Bool) Bool)
(declare-fun var84 (Bool) Bool)
(declare-fun var21 (Bool) Bool)
(declare-fun var162 (Bool) Bool)
(declare-fun var190 (Bool) Bool)
(declare-fun var81 (Bool) Bool)
(declare-fun var154 (Bool) Bool)
(declare-fun var171 (Bool) Bool)
(declare-fun var91 (Bool) Bool)
(declare-fun var16 (Bool) Bool)
(declare-fun var95 (Bool) Bool)
(declare-fun var139 (Bool) Bool)
(declare-fun var113 (Bool) Bool)
(declare-fun var116 (Bool) Bool)
(declare-fun var149 (Bool) Bool)
(declare-fun var176 (Bool) Bool)
(declare-fun var79 (Bool) Bool)
(declare-fun var179 (Bool) Bool)
(declare-fun var25 (Bool) Bool)
(declare-fun var65 (Bool) Bool)
(declare-fun var197 (Bool) Bool)
(declare-fun var194 (Bool) Bool)
(declare-fun var67 (Bool) Bool)
(declare-fun var106 (Bool) Bool)
(declare-fun var181 (Bool) Bool)
(declare-fun var80 (Bool) Bool)
(declare-fun var34 (Bool) Bool)
(declare-fun var131 (Bool) Bool)
(declare-fun var164 (Bool) Bool)
(declare-fun var39 (Bool) Bool)
(declare-fun var90 (Bool) Bool)
(declare-fun var12 (Bool) Bool)
(declare-fun var94 (Bool) Bool)
(declare-fun var153 (Bool) Bool)
(declare-fun var73 (Bool) Bool)
(declare-fun var137 (Bool) Bool)
(declare-fun var173 (Bool) Bool)
(declare-fun var47 (Bool) Bool)
(declare-fun var54 (Bool) Bool)
(declare-fun var22 (Bool) Bool)
(declare-fun var8 (Bool) Bool)
(declare-fun var60 (Bool) Bool)
(declare-fun var6 (Bool) Bool)
(declare-fun var189 (Bool) Bool)
(declare-fun var174 (Bool) Bool)
(declare-fun var77 (Bool) Bool)
(declare-fun var70 (Bool) Bool)
(declare-fun var115 (Bool) Bool)
(declare-fun var41 (Bool) Bool)
(declare-fun var188 (Bool) Bool)
(declare-fun var170 (Bool) Bool)
(declare-fun var33 (Bool) Bool)
(declare-fun var68 (Bool) Bool)
(declare-fun var165 (Bool) Bool)
(declare-fun var108 (Bool) Bool)
(declare-fun var76 (Bool) Bool)
(declare-fun var199 (Bool) Bool)
(declare-fun var195 (Bool) Bool)
(declare-fun var53 (Bool) Bool)
(declare-fun var110 (Bool) Bool)
(declare-fun var11 (Bool) Bool)
(declare-fun var85 (Bool) Bool)
(declare-fun var9 (Bool) Bool)
(declare-fun var180 (Bool) Bool)
(declare-fun var187 (Bool) Bool)
(declare-fun var43 (Bool) Bool)
(declare-fun var196 (Bool) Bool)
(declare-fun var114 (Bool) Bool)
(declare-fun var37 (Bool) Bool)
(declare-fun var126 (Bool) Bool)
(declare-fun var93 (Bool) Bool)
(declare-fun var24 (Bool) Bool)
(declare-fun var89 (Bool) Bool)
(declare-fun var38 (Bool) Bool)
(declare-fun var166 (Bool) Bool)
(declare-fun var63 (Bool) Bool)
(declare-fun var103 (Bool) Bool)
(declare-fun var134 (Bool) Bool)
(declare-fun var83 (Bool) Bool)
(declare-fun var107 (Bool) Bool)
(declare-fun var191 (Bool) Bool)
(declare-fun var28 (Bool) Bool)
(declare-fun var151 (Bool) Bool)
(declare-fun var121 (Bool) Bool)
(declare-fun var3 (Bool) Bool)
(declare-fun var82 (Bool) Bool)
(declare-fun var109 (Bool) Bool)
(declare-fun var138 (Bool) Bool)
(declare-fun var96 (Bool) Bool)
(declare-fun var48 (Bool) Bool)
(declare-fun var69 (Bool) Bool)
(declare-fun var101 (Bool) Bool)
(declare-fun var198 (Bool) Bool)
(declare-fun var168 (Bool) Bool)
(declare-fun var119 (Bool) Bool)
(declare-fun var87 (Bool) Bool)
(declare-fun var97 (Bool) Bool)
(declare-fun var141 (Bool) Bool)
(declare-fun var156 (Bool) Bool)
(declare-fun var193 (Bool) Bool)
(declare-fun var192 (Bool) Bool)
(declare-fun var183 (Bool) Bool)
(declare-fun var51 (Bool) Bool)
(declare-fun var66 (Bool) Bool)
(declare-fun var86 (Bool) Bool)
(declare-fun var31 (Bool) Bool)
(declare-fun var148 (Bool) Bool)
(declare-fun var155 (Bool) Bool)
(declare-fun var120 (Bool) Bool)
(declare-fun var49 (Bool) Bool)
(declare-fun var200 (Bool) Bool)
(declare-fun var140 (Bool) Bool)
(declare-fun var45 (Bool) Bool)
(declare-fun var172 (Bool) Bool)
(declare-fun var143 (Bool) Bool)
(declare-fun var58 (Bool) Bool)
(declare-fun var146 (Bool) Bool)
(declare-fun var17 (Bool) Bool)
(declare-fun var46 (Bool) Bool)
(declare-fun var127 (Bool) Bool)
(declare-fun var62 (Bool) Bool)
(declare-fun var122 (Bool) Bool)
(declare-fun var99 (Bool) Bool)
(declare-fun var147 (Bool) Bool)
(declare-fun var15 (Bool) Bool)
(declare-fun var44 (Bool) Bool)
(declare-fun var75 (Bool) Bool)
(declare-fun var157 (Bool) Bool)
(declare-fun var10 (Bool) Bool)
(declare-fun var185 (Bool) Bool)
(declare-fun var169 (Bool) Bool)
(declare-fun var19 (Bool) Bool)
(declare-fun var5 (Bool) Bool)
(declare-fun var71 (Bool) Bool)
(declare-fun var133 (Bool) Bool)
(declare-fun var130 (Bool) Bool)
(declare-fun GTE (Bool Bool) Bool)
(define-fun implies ((p Bool)(q Bool)) Bool (or (not p) q))

(assert (forall ((x Bool)) (not(or (not(var59 x)) (var88 x)))))
(assert (forall ((x Bool)) (not(or (not(var100 x)) (var64 x)))))
(assert (forall ((x Bool)) (not(or (not(var184 x)) (var52 x)))))
(assert (forall ((x Bool)) (not(or (var160 x) (not(var104 x))))))
(assert (forall ((x Bool)) (not(or (not(var186 x)) (not(var7 x))))))
(assert (forall ((x Bool)) (not(or (var4 x) (not(var23 x))))))
(assert (forall ((x Bool)) (not(or (var129 x) (var161 x)))))
(assert (forall ((x Bool)) (not(or (not(var36 x)) (not(var112 x))))))
(assert (forall ((x Bool)) (not(or (var118 x) (not(var158 x))))))
(assert (forall ((x Bool)) (not(or (not(var123 x)) (not(var1 x))))))
(assert (forall ((x Bool)) (not(or (var111 x) (not(var40 x))))))
(assert (forall ((x Bool)) (not(or (var29 x) (var57 x)))))
(assert (forall ((x Bool)) (not(or (not(var105 x)) (var27 x)))))
(assert (forall ((x Bool)) (not(or (not(var175 x)) (not(var167 x))))))
(assert (forall ((x Bool)) (not(or (var117 x) (not(var150 x))))))
(assert (forall ((x Bool)) (not(or (not(var20 x)) (var35 x)))))
(assert (forall ((x Bool)) (not(or (not(var159 x)) (var55 x)))))
(assert (forall ((x Bool)) (not(or (var152 x) (not(var18 x))))))
(assert (forall ((x Bool)) (not(or (not(var50 x)) (not(var132 x))))))
(assert (forall ((x Bool)) (not(or (not(var98 x)) (not(var14 x))))))
(assert (forall ((x Bool)) (not(or (var26 x) (not(var78 x))))))
(assert (forall ((x Bool)) (not(or (var145 x) (var30 x)))))
(assert (forall ((x Bool)) (not(or (not(var182 x)) (var13 x)))))
(assert (forall ((x Bool)) (not(or (not(var177 x)) (var125 x)))))
(assert (forall ((x Bool)) (not(or (not(var178 x)) (not(var136 x))))))
(assert (forall ((x Bool)) (not(or (not(var92 x)) (not(var128 x))))))
(assert (forall ((x Bool)) (not(or (var124 x) (not(var102 x))))))
(assert (forall ((x Bool)) (not(or (var61 x) (var142 x)))))
(assert (forall ((x Bool)) (not(or (not(var2 x)) (not(var42 x))))))
(assert (forall ((x Bool)) (not(or (var163 x) (not(var135 x))))))
(assert (forall ((x Bool)) (not(or (var144 x) (var32 x)))))
(assert (forall ((x Bool)) (not(or (not(var74 x)) (var56 x)))))
(assert (forall ((x Bool)) (not(or (not(var72 x)) (not(var84 x))))))
(assert (forall ((x Bool)) (not(or (not(var21 x)) (var162 x)))))
(assert (forall ((x Bool)) (not(or (not(var190 x)) (not(var81 x))))))
(assert (forall ((x Bool)) (not(or (not(var154 x)) (var171 x)))))
(assert (forall ((x Bool)) (not(or (not(var91 x)) (not(var16 x))))))
(assert (forall ((x Bool)) (not(or (var95 x) (not(var139 x))))))
(assert (forall ((x Bool)) (not(or (not(var113 x)) (not(var116 x))))))
(assert (forall ((x Bool)) (not(or (var149 x) (not(var176 x))))))
(assert (forall ((x Bool)) (not(or (var79 x) (not(var179 x))))))
(assert (forall ((x Bool)) (not(or (not(var25 x)) (not(var65 x))))))
(assert (forall ((x Bool)) (not(or (not(var197 x)) (not(var194 x))))))
(assert (forall ((x Bool)) (not(or (var67 x) (var106 x)))))
(assert (forall ((x Bool)) (not(or (not(var181 x)) (var80 x)))))
(assert (forall ((x Bool)) (not(or (not(var34 x)) (not(var131 x))))))
(assert (forall ((x Bool)) (not(or (not(var164 x)) (var39 x)))))
(assert (forall ((x Bool)) (not(or (not(var90 x)) (var12 x)))))
(assert (forall ((x Bool)) (not(or (not(var94 x)) (var153 x)))))
(assert (forall ((x Bool)) (not(or (not(var73 x)) (var137 x)))))
(assert (forall ((x Bool))  (exists ((x1 Bool)) (and(GTE x x1)  (implies (not(var173 x1)) (var47 x))))))
(assert (forall ((x Bool))  (exists ((x1 Bool)) (and(GTE x x1)  (implies (var54 x1) (not(var22 x)))))))
(assert (forall ((x Bool))  (exists ((x1 Bool)) (and(GTE x x1)  (implies (not(var8 x1)) (var60 x))))))
(assert (forall ((x Bool))  (exists ((x1 Bool)) (and(GTE x x1)  (implies (var6 x1) (not(var189 x)))))))
(assert (forall ((x Bool))  (exists ((x1 Bool)) (and(GTE x x1)  (implies (not(var174 x1)) (not(var77 x)))))))
(assert (forall ((x Bool))  (exists ((x1 Bool)) (and(GTE x x1)  (implies (not(var70 x1)) (var115 x))))))
(assert (forall ((x Bool))  (exists ((x1 Bool)) (and(GTE x x1)  (implies (not(var41 x1)) (not(var188 x)))))))
(assert (forall ((x Bool))  (exists ((x1 Bool)) (and(GTE x x1)  (implies (not(var170 x1)) (var33 x))))))
(assert (forall ((x Bool))  (exists ((x1 Bool)) (and(GTE x x1)  (implies (not(var68 x1)) (not(var165 x)))))))
(assert (forall ((x Bool))  (exists ((x1 Bool)) (and(GTE x x1)  (implies (var108 x1) (not(var76 x)))))))
(assert (forall ((x Bool))  (exists ((x1 Bool)) (and(GTE x x1)  (implies (not(var199 x1)) (var195 x))))))
(assert (forall ((x Bool))  (exists ((x1 Bool)) (and(GTE x x1)  (implies (var53 x1) (not(var110 x)))))))
(assert (forall ((x Bool))  (exists ((x1 Bool)) (and(GTE x x1)  (implies (var11 x1) (not(var85 x)))))))
(assert (forall ((x Bool))  (exists ((x1 Bool)) (and(GTE x x1)  (implies (var9 x1) (var180 x))))))
(assert (forall ((x Bool))  (exists ((x1 Bool)) (and(GTE x x1)  (implies (var187 x1) (var43 x))))))
(assert (forall ((x Bool))  (exists ((x1 Bool)) (and(GTE x x1)  (implies (var196 x1) (not(var114 x)))))))
(assert (forall ((x Bool))  (exists ((x1 Bool)) (and(GTE x x1)  (implies (not(var37 x1)) (not(var126 x)))))))
(assert (forall ((x Bool))  (exists ((x1 Bool)) (and(GTE x x1)  (implies (var93 x1) (not(var24 x)))))))
(assert (forall ((x Bool))  (exists ((x1 Bool)) (and(GTE x x1)  (implies (var89 x1) (var38 x))))))
(assert (forall ((x Bool))  (exists ((x1 Bool)) (and(GTE x x1)  (implies (not(var166 x1)) (not(var63 x)))))))
(assert (forall ((x Bool))  (exists ((x1 Bool)) (and(GTE x x1)  (implies (not(var103 x1)) (not(var134 x)))))))
(assert (forall ((x Bool))  (exists ((x1 Bool)) (and(GTE x x1)  (implies (not(var83 x1)) (not(var107 x)))))))
(assert (forall ((x Bool))  (exists ((x1 Bool)) (and(GTE x x1)  (implies (var191 x1) (not(var28 x)))))))
(assert (forall ((x Bool))  (exists ((x1 Bool)) (and(GTE x x1)  (implies (var151 x1) (var121 x))))))
(assert (forall ((x Bool))  (exists ((x1 Bool)) (and(GTE x x1)  (implies (not(var3 x1)) (var82 x))))))
(assert (forall ((x Bool))  (exists ((x1 Bool)) (and(GTE x x1)  (implies (var109 x1) (var138 x))))))
(assert (forall ((x Bool))  (exists ((x1 Bool)) (and(GTE x x1)  (implies (not(var96 x1)) (not(var48 x)))))))
(assert (forall ((x Bool))  (exists ((x1 Bool)) (and(GTE x x1)  (implies (not(var69 x1)) (not(var101 x)))))))
(assert (forall ((x Bool))  (exists ((x1 Bool)) (and(GTE x x1)  (implies (var198 x1) (not(var168 x)))))))
(assert (forall ((x Bool))  (exists ((x1 Bool)) (and(GTE x x1)  (implies (var119 x1) (not(var87 x)))))))
(assert (forall ((x Bool))  (exists ((x1 Bool)) (and(GTE x x1)  (implies (not(var97 x1)) (var141 x))))))
(assert (forall ((x Bool))  (exists ((x1 Bool)) (and(GTE x x1)  (implies (var156 x1) (not(var193 x)))))))
(assert (forall ((x Bool))  (exists ((x1 Bool)) (and(GTE x x1)  (implies (var192 x1) (not(var183 x)))))))
(assert (forall ((x Bool))  (exists ((x1 Bool)) (and(GTE x x1)  (implies (not(var51 x1)) (not(var66 x)))))))
(assert (forall ((x Bool))  (exists ((x1 Bool)) (and(GTE x x1)  (implies (var86 x1) (var31 x))))))
(assert (forall ((x Bool))  (exists ((x1 Bool)) (and(GTE x x1)  (implies (not(var148 x1)) (var155 x))))))
(assert (forall ((x Bool))  (exists ((x1 Bool)) (and(GTE x x1)  (implies (var120 x1) (not(var49 x)))))))
(assert (forall ((x Bool))  (exists ((x1 Bool)) (and(GTE x x1)  (implies (not(var200 x1)) (var140 x))))))
(assert (forall ((x Bool))  (exists ((x1 Bool)) (and(GTE x x1)  (implies (var45 x1) (var172 x))))))
(assert (forall ((x Bool))  (exists ((x1 Bool)) (and(GTE x x1)  (implies (var143 x1) (not(var58 x)))))))
(assert (forall ((x Bool))  (exists ((x1 Bool)) (and(GTE x x1)  (implies (var146 x1) (var17 x))))))
(assert (forall ((x Bool))  (exists ((x1 Bool)) (and(GTE x x1)  (implies (var46 x1) (not(var127 x)))))))
(assert (forall ((x Bool))  (exists ((x1 Bool)) (and(GTE x x1)  (implies (var62 x1) (var122 x))))))
(assert (forall ((x Bool))  (exists ((x1 Bool)) (and(GTE x x1)  (implies (var99 x1) (not(var147 x)))))))
(assert (forall ((x Bool))  (exists ((x1 Bool)) (and(GTE x x1)  (implies (not(var15 x1)) (var44 x))))))
(assert (forall ((x Bool))  (exists ((x1 Bool)) (and(GTE x x1)  (implies (var75 x1) (not(var157 x)))))))
(assert (forall ((x Bool))  (exists ((x1 Bool)) (and(GTE x x1)  (implies (not(var10 x1)) (var185 x))))))
(assert (forall ((x Bool))  (exists ((x1 Bool)) (and(GTE x x1)  (implies (var169 x1) (var19 x))))))
(assert (forall ((x Bool))  (exists ((x1 Bool)) (and(GTE x x1)  (implies (var5 x1) (not(var71 x)))))))
(assert (forall ((x Bool))  (exists ((x1 Bool)) (and(GTE x x1)  (implies (var133 x1) (var130 x))))))
(check-sat)
(get-model)
